fe3 o4
1.0
        8.3839998245         0.0000000000         0.0000000000
        0.0000000000         8.3839998245         0.0000000000
        0.0000000000         0.0000000000         8.3839998245
   Fe    O
   24   32
Direct
     0.624999986         0.624999986         0.624999986
     0.375000014         0.875000014         0.125000000
     0.875000014         0.125000000         0.375000014
     0.125000000         0.375000014         0.875000014
     0.875000014         0.375000014         0.125000000
     0.375000014         0.125000000         0.875000014
     0.125000000         0.875000014         0.375000014
     0.624999986         0.125000000         0.125000000
     0.375000014         0.375000014         0.624999986
     0.875000014         0.624999986         0.875000014
     0.875000014         0.875000014         0.624999986
     0.375000014         0.624999986         0.375000014
     0.125000000         0.624999986         0.125000000
     0.624999986         0.375000014         0.375000014
     0.624999986         0.875000014         0.875000014
     0.125000000         0.125000000         0.624999986
     0.000000000         0.000000000         0.000000000
     0.000000000         0.500000000         0.500000000
     0.500000000         0.500000000         0.000000000
     0.500000000         0.000000000         0.500000000
     0.750000028         0.250000000         0.750000028
     0.250000000         0.250000000         0.250000000
     0.250000000         0.750000028         0.750000028
     0.750000028         0.750000028         0.250000000
     0.375000014         0.375000014         0.375000014
     0.624999986         0.125000000         0.875000014
     0.125000000         0.875000014         0.624999986
     0.875000014         0.624999986         0.125000000
     0.125000000         0.624999986         0.375000014
     0.875000014         0.875000014         0.875000014
     0.624999986         0.375000014         0.125000000
     0.375000014         0.125000000         0.624999986
     0.624999986         0.125000000         0.375000014
     0.125000000         0.375000014         0.624999986
     0.375000014         0.624999986         0.125000000
     0.125000000         0.624999986         0.875000014
     0.624999986         0.875000014         0.125000000
     0.875000014         0.125000000         0.624999986
     0.375000014         0.875000014         0.875000014
     0.624999986         0.624999986         0.375000014
     0.125000000         0.375000014         0.125000000
     0.125000000         0.125000000         0.875000014
     0.875000014         0.375000014         0.375000014
     0.624999986         0.875000014         0.624999986
     0.624999986         0.624999986         0.875000014
     0.125000000         0.875000014         0.125000000
     0.125000000         0.125000000         0.375000014
     0.624999986         0.375000014         0.624999986
     0.875000014         0.375000014         0.875000014
     0.375000014         0.624999986         0.624999986
     0.375000014         0.875000014         0.375000014
     0.875000014         0.125000000         0.125000000
     0.875000014         0.624999986         0.624999986
     0.375000014         0.125000000         0.125000000
     0.875000014         0.875000014         0.375000014
     0.375000014         0.375000014         0.875000014
